0 8 8 8 8 8 8 8 8 8 
8 0 16 20 8 16 2 17 6 10 
8 16 0 19 3 14 2 4 6 10 
8 20 19 0 15 11 10 18 6 10 
8 8 3 15 0 11 2 3 6 10 
8 16 14 11 11 0 14 11 15 6 
8 2 2 10 2 14 0 2 6 12 
8 17 4 18 3 11 2 0 6 8 
8 6 6 6 6 15 6 6 0 3 
8 10 10 10 10 6 12 8 3 0 